
 102   30
  10   10   10   10   10   10   10   10   10   10   10   10   10   10   10   10   10   10   10   10   10   10   10   10   10   10   10   10   10   10

   0   0   0   0   0   0   0   0   0   0   0   0   0   0   0   0   0   0   0   0   0   0   0   0   0   0   0   0   0   0   0  28 2 3 4 5 6 7 8 9 10 11 12 13 14 16 17 18 19 20 21 22 24 26 27 28 31 36 38 57 
   3   0   0   0   0   0   0   0   0   0   0   0   0   0   0   0   0   0   0   0   2   0   0   0   2   0   0   0   0   0   0  13 101 67 61 56 55 49 47 45 41 34 29 25 15 
   9   0   0   1   0   0   0   0   0   0   0   0   0   0   0   0   0   0   0   0   0   0   0   0   0   0   0   0   0   0   0  19 101 97 96 95 67 61 60 56 55 54 52 49 47 45 42 41 40 35 33 
   5   0   1   0   0   0   0   0   0   0   0   0   0   0   0   0   0   0   0   0   0   0   0   2   0   0   0   1   0   0   0  13 71 66 61 60 56 55 54 52 47 45 41 39 15 
   1   0   0   0   0   0   0   0   0   0   1   0   0   0   0   0   0   0   0   1   6   0   0   0   0   0   0   0   0   0   0  15 100 96 94 67 55 54 53 51 48 45 44 43 41 37 30 
   3   0   0   0   0   0   0   0   0   0   0   3   0   0   0   0   0   0   0   0   0   0   0   0   0   0   0   0   0   1   0  19 101 100 97 96 95 92 72 71 68 60 56 54 53 50 49 45 43 42 35 
   8   0   0   0   0   0   0   0   0   0   0   0   0   0   0   0   1   0   0   0   0   0   3   0   0   0   0   0   0   0   0  10 101 71 66 61 55 54 50 47 45 15 
   1   1   0   0   0   0   0   0   0   0   7   0   0   0   0   0   6   0   0   0   6   0   0   0   0   0   2   0   0   0   1  13 101 100 99 95 94 71 67 66 62 60 56 51 23 
   3   0   0   0   0   0   0   0   0   0   0   0   0   3   0   0   0   0   0   0  10   0   9   0   0   2   0   0   0   0   0  17 97 93 68 67 66 65 62 58 56 54 52 50 49 44 42 41 40 
   7   0   0   0   0   0   0   1   0   0   0   0   0   0   0   0   0   0   1   0   0   0   0   7   0   0   5   0   0   5   0  14 101 97 96 95 94 92 71 66 65 58 49 43 35 33 
   9   6   0   0   0   0   3   0   0   0   0   0   0   0   1   0   0   0   0   0   0   3   0   0   0   0   0   0   0   0   7  13 96 95 91 72 71 65 60 54 51 45 42 35 32 
   4   0   0   0   0   0   0   0   1   3   0   0   0   0   0   1   0   0   0   0   0   0   0   0   0   0   0   0   5   0   0  18 100 97 96 95 93 86 82 81 72 71 70 67 61 59 58 55 49 35 
   5   0   0   0   0   0   0   0   0   0   0   0   1   3   6   0   0   0   0   0   0   0   0   8   0   0   0   0   0   0   0  17 100 98 97 96 93 90 72 68 67 66 65 63 58 50 44 41 40 
   7   0   0   0   0   0   0   0   0   0   0   0   0   0   3   0   0   0   0   0   7   3   0   0   0   4   0   3   0   0   4  25 100 98 96 95 94 93 91 90 89 88 86 84 82 72 71 70 66 65 64 63 60 59 58 54 48 
   1   0   0   0   0   0   0   0   0   0   9   0   0   0   0   0   0   1   0   0   0   0   0   0   0   0   5   0   0   0   0  11 97 96 95 94 92 91 85 65 58 35 33 
   3   0   0   0   1   0   0   0   5   0   0   0   5   0   0   0   0   0   0   0   0   0   0   0   0   0   0   0   0   6   0  21 100 99 98 96 95 94 90 88 86 84 80 66 65 64 63 62 58 56 55 54 41 
   8   0   0   0   0   0   0   0   0   0   0   0   0   0   0   0   5   8   0   0   0   6   0   0   0   0   0   0   4   0   0  16 98 96 95 90 88 86 84 82 71 65 61 60 58 55 48 42 
   5   0   0   0   0   8   0   0   0   0   0   0   0   0   0   0   7   0   0   0   0   0   0   0   0   0   0   3   0   0   0  19 96 95 89 88 86 85 82 81 76 71 70 67 64 63 61 58 55 49 48 
   3   0   0   0   0   0   0   0   0   0   0   0   0   7   0   0   0   0   0   0   0   0   0   0   7  10   0   0   0   0   0  19 99 98 97 96 95 93 90 87 83 71 70 67 64 62 60 58 54 52 50 
   4   5   0   0   0   0   0   0   0   0   4   0   0   0   0   0   0   0   0   0   0   0   0   0   0   0   0   0   0   9   0  11 93 90 88 86 72 65 58 55 48 46 41 
   7   0   0   0   0   0   8   5   0   0   0   0   0   0   0   0   0   5   0   6   0   0   6   0   6   0   0   0   0   0   3  19 98 95 93 91 90 88 87 83 82 72 70 69 66 64 63 60 58 54 40 
   6   0   9   5   0   0  10   0   0   0   3   0   0   0   0   0   0   0   0   0   0   0   0   0   8   6   0   4   0   0  10  17 101 99 96 95 93 92 88 83 82 70 66 65 64 63 62 56 40 
   7   0   5   0   0   0   0   0   0   3   0   0   0   0   0   0   0   0   0   0   0   0   0   0   0   0   0   0  10   0   0  13 97 96 88 86 81 72 65 64 59 54 49 45 41 
  10   0   0   0   0   0   0   0   0   0   0   0  10   0   0   0   0   0   0   0   0   0   8   0   0   0   0   0   0   0   0  16 97 96 93 92 90 83 82 70 69 66 64 63 60 58 50 40 
   9   0   0   3   0   0   5   0   0   0   0   0   0   0   0   0   0   0   4   0   0   5   0   0   0   0   6   0   0   4   2  15 92 91 90 88 83 82 70 66 64 63 62 59 58 54 40 
   7   0   0   0   6   0   0   0   0   4   0   0   3   0   0   0   0   0   0   0   0   0   0   0   0   7   0   6   0   0   0  20 100 97 96 92 91 89 88 86 82 81 80 72 71 70 69 67 65 63 61 58 
   7   0   0   0   0   0   0   4   0   8   0   0   0   0   0   9   0   0   0   0   0   0   0   0   0   0   0   0   0   6   0  14 95 92 89 84 82 75 71 69 65 63 59 56 54 49 
   3   0   0   0   0   0   0   0   0   0   7   4   0   0   0  10   0   0   7   0   0   0   0   0   0   0   6   5   0   0   0  21 99 98 95 94 93 90 89 87 86 85 83 82 78 76 75 71 70 64 63 62 58 
   1   0   0   8   0   3   0   0   0  10   0   0   0   0   0   0   0   0   0   0   0   0   0   0   0   0   0   8   0   0   0  19 100 98 97 93 90 88 87 86 83 81 80 75 72 71 64 63 59 58 54 
  10   0   0   0   0   0   0   5   0   0   0   4   0   0   0   6   0   0   8   0   0   5   0   0   0   0   0   0   0   0   8  19 101 97 91 90 86 85 83 82 81 80 78 77 75 71 69 68 65 64 63 
   8   5   0   0   0   4   0   0   0   0   0   5   0   0   0   0   0   0   0   0  10   0   0   0   6   8   5   0   0   0   0  21 101 100 97 96 92 91 89 87 84 83 82 80 78 77 76 75 71 70 69 64 63 
   8   0   0   0   0   0   0   0   0   0   0   0   0   6   0   0   0   0   0   0   7   0   0   0   0   0   9   0   0   0   0  21 101 97 92 90 89 88 87 85 84 83 82 81 80 79 78 77 76 75 70 64 63 
   3   0   6   0   0   0   0   0   6   0   0   0   0   0   0   0   0   0   0   0   0   0   0   0   0   0   0   0   0   2   0  17 100 99 98 93 90 88 83 82 81 79 77 75 72 70 63 62 59 
   3   0   0   0   0   0   0   0   0   0   0   0   0   0   0   0   0   0   7   0   0   0   6   0   0   0   6   0   0   0   0  16 100 95 91 90 87 86 85 84 83 76 75 71 64 63 62 60 
   3   3   0   0   0   0   0   6   0   9   0   0   0   3   8   0   0   0   0   0   0   0   0   0   0   0   0   0   0   0   0   9 89 88 84 80 78 75 64 63 48 
   3   0   5   0   0   0   0   0   0   0   7   0   0   0   0   0   0   0   0   0   0   0   0   0   0   0   0   0   0   0   0  12 101 96 86 82 79 77 75 72 70 69 63 59 
   3   0   0   0   0   0   0   0   0   0   0   0   0   0   0   0   0   0   0   0   0   6   0   0   0   0   0   0   4   0   0   9 90 86 84 76 71 66 63 60 59 
   2   0   0   5   0   0   8   0   0   0   0   0   0   0   0   6   0   0   0   0   0  10   0   0   0   0   0   0   0   0   0  14 97 94 88 87 86 85 83 82 79 78 77 76 75 74 
   5   0   0   0   0   0   0   0   0   0   0   0   0   0   0   7   0   9   0   0   0   0   0   0   0   0   0   0   0   0   6  12 97 92 89 86 82 81 80 76 75 69 64 63 
   8   0   0   0   0   7   0   0   0   4   0   0   0   0   0   0   0   0   0   0   0   0   0   4   5   0   0   0   0   0   0  12 94 89 86 85 84 81 80 78 77 74 73 71 
   2   0   0   0   0   0   0   0   0   0   0   0   0   0   0   0   0   0   0   0   0   0  10   0   0   0   0   0   0   0   0  11 89 87 85 83 82 78 77 76 74 70 69 
   7   0   0   0   4   0   0   9   0   0   0   0   0   6   0   0   0   0   6   0   0   0   0   0   0   0   0   0   5   0  10   9 94 89 85 81 76 75 64 63 59 
   6   0   3   0   0   0   3   0   0   0   0   0   0   0   0   0   0   4   0   0   0   0   0   0   0   0   0   0   0   0   0  10 99 91 88 86 85 80 79 77 74 70 
   6   0   8   0   0   0   0   0   0   0   0   0   0   0   0   0  10   0   0   0   0   0   0   0   0   0   8   5   0   0   0  10 95 92 91 84 81 80 77 76 75 69 
   2   9   0   0   0   0   8   0   0   0   0   0   0   0   0   0  10   0   0   0   0   2   5   0   0   0   7   0   7   8   0   8 93 82 80 79 78 75 63 58 
   4   0   5   0   0   0   0  10   0   0   0   0   0  10   0   0   0   0   0   0   0   0   0   8   0   0   0   0   0   0   0   7 81 80 78 77 67 64 63 
   1   0   0   0   7   0   0   0   0   0   0   0   0   0   0   0   0   0   0   5   0   0   0   0   6   4   0   0   0   0   0   9 88 86 82 80 79 76 75 74 73 
   9   0   0   0   0   0   5   0   0   0   0   9   0   0   0   0   0   0   0   0   0   0   0   0   0   0   5   0   4   0   0   5 99 83 79 77 62 
   6   0   0   0   0   0   0   0   8   0   0   0   4   0   0   0   0   0   0   0   0   0   0   0   0   7   0   8   0   0   0   7 98 91 90 83 80 77 74 
   5   8   0   0   0   0   0   0   0   0   0   4   0   0   7   0   0   0   0   0   0   0   0   6   0   0   0   0   0   0   0   7 88 86 84 81 80 76 73 
   6   0   0   0   0   0   0   8   0   0   0   0   0   0   0   0   0   0   0   0   0   0   0   0   0   7   0   0   3   0   6   7 93 89 88 85 81 76 73 
   5   0   0   0   9   0   0   0   0   0   0   0   0   7   9   0   0   0   0   0   0   3   0   0   0   0   0   0   0   0   0   3 94 80 63 
  10   0   0   0   0   0   0   5   0   0   0   0   0   0   0   0   0   0   0   0   0  10   0   0   0   0   0   0   0   0   0   3 82 76 63 
   2   0   0   0   0   0   0   0   0   0   0   0   0   0   0   9   0   0   6   0   0   7   0   0   0   0   0   0   0   0   0   4 85 78 74 73 
   3   8   0   0   0  10   0   0   0   6   6   0   0   0   0   0   3   0   0   7   0   0   0   0   0   0   0   0   0   5   0   4 92 91 87 73 
   2   0   0   0   0   0   0   0   0   0   0   0   5   0   7   0   8   8   0   0   0   0   0   0   0   5   0   0   0   0   0   4 87 81 79 77 
   2   0   0   0   0   0   2   0   0   0   0   0   0   0   0   0   0   0   8   0   0   0   0   4   0   0   0   0   0   0   0   4 81 75 74 73 
   5   0   0   0   0   0   0   5   0   0   0   0   0   0   0   0   5   0   5   0   0   0   0  10   0   0   0   0   0   0   5   3 77 74 73 
   7   0   0   9   0   0   0   0   0   6   0   0   0   0   0   0   0   0   0   0   0   0   0   0   0   0   0   0   0   9   0   3 78 74 73 
   8   0   0   0   0   0   0   0   0   0   0   0   0   0   0   0   2   0   0   0   0   0   0   0   6   0   0   0   0   0   5   3 81 80 74 
   7   0   0   0   0   0   0   0   0   0   0   0   0   0   0   4   0   0   5   0   0   0   0   0   0   0   0   0   0   7   0   3 78 74 73 
   1   0   6   0   0   0   0   0   0   7   0   0   0   0   0   5   0   5   0   9   0   0   6   0   0   0   0   5   0   0   0   2 74 69 
   4   0   0   0   0   7   0   0   0   0   0   0   0   0   0   0   0   0   0   0   0   0   0   0   0   0   0   0   0   0   0   2 74 73 
   8   0   9   8   4   0   0   0   0   0   0   0   0   0   0   0   0   0   0   0   0   0   0   0   0   6   0   0  10   0   7   2 74 73 
   5   0   0   0   0   0   0   0   7   0   0  10   0   0   0   0   0   0   0   0   0   0   0   0   0   0   0   7   0   0   0   2 87 76 
   9   0   0   0   0   0   0   0   0   5   0   0   0   0   0   0   0   0   0   0   2   0   0   0   0   0   0   0   0   0   7   2 78 75 
  10   0   0   0   0   0   0   0   0   0   0   0   0   0   0   0   0   0   0   0   0   0   0   0   0   0   0   0   0   0   0   2 84 75 
   5   0   0   0   0   0   0   0   0   0   0   0   9   0   0   0   0   0   0   0   0   0   0   0   0   0   0   4   0   0   0   2 84 79 
   7   0   0   0   0   4   0   0   0   0   0   0   0   0   0   0   0   0   8   5   0   0   0   0   0   0   0   0   0   0   0   1 73 
   5   0   0   0   0   0   0   0   0   0   5   0   0   8   0   0   0   0   0   0   3   8   0   0   0   0   5   0   0   0   0   1 73 
  10   0   0   0   8   0   0   0   0   0   0   0   5   0   0   7   0   0   0   0   0   0   0   0   0   0   0   0   0   0   0   1 79 
   7   0   0   0   8   0   0   0   0   0   0   9   0   4   5   0   0   0   0   0   0   9   0   0   0   0   0   0   0   0   0   1 76 
  10   0   0   0   0   0   0   0   0   0   0   0   4   8   0   0   0   0   0   0   0   0   0   0   0   0   8   0   0   0   0   1 102
   8   0   0   0   0   0   0   0   0   0   0   0   0   0   5   0   0   0   0   0   0   0   0   0   0   0   0   0   0   0   0   1 102
   8   5   7   0   0   0   0   0   0   0   0   0   0   0   9   0   0   0   0   0   0   0   4   0   0   0   4   0   0   0   0   1 102
   3   0   0   0   0   0   0   0   0   0   0   0   8   0   0   0   0   6   8   0   4   0   0   0   0   0   2   0   0   0   0   1 102
   5   0   0   0   0   0   0   4   0   0   0   0   0   0   0   0   0   0   4   0   0   5   3   0   0   0   0   0   0   0   0   1 102
   4   0   0   0   0   0   8   0   7   0   0   0   0   0   0   0   0   0   0   0   0   3   0   0   0   0   0   0   0   0   0   1 102
   2   0   0   7   0   0   0   0   0   0   0   0   0   0   0   0   0   0   0   0   0   8   0   0   0   0   0   0   0   0   0   1 102
   4   0   0   0   0   0   0   0   0   0  10   0   0   8   0   5   0   0   0   0  10   0   0   0   0   0   9   0   0   0   0   1 102
  10   0   0   0   0   0   0   0   0   0   0   0   0   0   7   0   0   0   0   8   0   0   6   0   0   0   0   0   0   4   9   1 102
   5   0   0   0   0   0   0   0   0   0   0   0   0   0   0   0   0   7   0   0   0   9   0   7   0   9   0   0   0   0   0   1 102
   3   0   0   0   0   0   0   0   0   0   0   0   0   0   0   0   0   0   0   0   0   0   0   0   2   0   0   0   0   0   0   1 102
   4   0   0   0   0   0   0   0   0   8   0   0   0   0   0   0   0   0   5   0   0   0   0   0   0   0   0   0   0   6   0   1 102
   1   0   7   0   0   0   0   0   9   0   0   0  10   0   0   0   7   0   0   0   0   0   0   0   0   0   0   0   0   0   0   1 102
   7   0   0   6   0   0   0   0   0   0   0   0   0   0   0   0   0   0   0   0   4   0   0   0   9   0   0   0   0   0   0   1 102
   6   0   7   0   0   0   0   0   0   0   0   7   0   0   0   8   0   0   0   0   0   0   0   5   0   6   0   0   0   9   0   1 102
   7   0   0   0   0   0   0   0   0   0   0   5   0   0   0   4   0   0   0   0   0   0   0   0   0   0   0   0   0   0   0   1 102
   6   0   0   0   0   0   0   0   5   0   0   0   0   0   0   2   0   9   6   0   8   0   0   0   0   0   0   0   0   0   5   1 102
   2   0   0   0   0   0   0   0   0   0   0   0   0   5   6   0   5   0   0   0   0   0   0   2   0   0   0   8   7   0   0   1 102
   8   0   0   0   0   0   0   0   0   0   0   0   0   0   0   7   0   0   0   0   0   0   0   0   0   7  10   0   0   0   0   1 102
   7   0   0   9   0   0   0   0   0   0   0   0   8   0   0   0   9   0   0   0   0   5   0   0   0   0   0   0   0   0   0   1 102
   1   0   0   3   0   0   0   0   0   4   0   0   0   0   5   0   0   0   0   0   7   0   0   8  10   0   0   0   0   0   0   1 102
   4  10   0   0   0   0   0   0   0   0   0   0   0   0   0   6   0   0   0   0   0   0   0   0   5   0   0   0   0   0   0   1 102
  10   0   0   9   7   5   0   0   0   0   0   0   0   0   0   0   0   0   0   0   0   0   0   0   0   0   0  10   0   0   0   1 102
   1   0   0   5   0   0   0   0   0   0   0   0   0   0   0   0   0   0   0   0   0   0   0   0   0   0   0   6   0   0   5   1 102
   9   0   0   0   0   0   0   0   0   0   0   0   0   0   0   0   0   0   8   0   0   0   0   0   0   0   0   0   7   3   0   1 102
   6   0   6   0   0   0   0   0   0   0   0   0   0   0   0   0   0   0   0   0   4   7   0   7   0   0   0   9   0  10   0   1 102
   6   0   0   0   0   0   0   0   0   0   7   0   0   0   0   0   0   0   0   0   0   0   0   0   0   2   0   8   0   0   8   1 102
   5   0   0   0   0   0   0   8   0   7   0   0   0   0   0   0   0   0   0   7   0   0   0   0   0   0   0   0   0   8   6   1 102
   1   0   0   0   0   0   0   8   0   0   0   0   0   0   0   0   0   4   0   6   0   0   0   0   0   0   0   8   0   0   0   1 102
   0   0   0   0   0   0   0   0   0   0   0   0   0   0   0   0   0   0   0   0   0   0   0   0   0   0   0   0   0   0   0   0 
